Route #1: 25 23 13 53 44 
Route #2: 35 28 22 68 65 62 34 50 3 
Route #3: 20 24 52 7 4 16 45 30 
Route #4: 15 43 12 64 18 33 47 58 
Route #5: 8 66 56 61 5 48 26 29 
Route #6: 27 51 17 49 2 37 11 38 6 55 
Route #7: 63 57 40 39 41 
Route #8: 59 67 69 9 60 42 21 46 36 14 31 
Route #9: 32 19 54 10 
cost 1254.8
